CMD:
./solvers/bin/cadical --plain --no-reduce -t 1600 ./data/cnfs//shift_register_top_w16_d64_e0/shift_register_top_w16_d64_e0.5.cnf

c --- [ banner ] -------------------------------------------------------------
c 
c CaDiCaL SAT Solver
c Copyright (c) 2016-2024
c A. Biere, M. Fleury, N. Froleyks, K. Fazekas, F. Pollitt, T. Faller
c JKU Linz, University of Freiburg, TU Wien
c 
c Version 2.1.3 5296d3d2a9bf48c154ab2acb5e44625776d821bf
c g++ (Gentoo 12.3.1_p20230526 p2) 12.3.1 20230526 -Wall -Wextra -O3 -DNDEBUG
c Sat Aug 9 07:26:21 PDT 2025 Linux cedar2.int.cedar.computecanada.ca 5.14.0-362.24.2.el9_3.x86_64 x86_64
c 
c --- [ limit ] --------------------------------------------------------------
c 
c setting time limit to 1600 seconds real time (due to '-t 1600')
c 
c --- [ parsing input ] ------------------------------------------------------
c 
c reading DIMACS file from './data/cnfs//shift_register_top_w16_d64_e0/shift_register_top_w16_d64_e0.5.cnf'
c opening file to read './data/cnfs//shift_register_top_w16_d64_e0/shift_register_top_w16_d64_e0.5.cnf'
c found 'p cnf 54806 160591' header
c parsed 160591 clauses in 0.03 seconds process time
c 
c --- [ options ] ------------------------------------------------------------
c 
c   --compact=false                (different from default 'true')
c   --decompose=false              (different from default 'true')
c   --deduplicate=false            (different from default 'true')
c   --elim=false                   (different from default 'true')
c   --probe=false                  (different from default 'true')
c   --reduce=false                 (different from default 'true')
c   --subsume=false                (different from default 'true')
c   --ternary=false                (different from default 'true')
c   --transred=false               (different from default 'true')
c   --vivify=false                 (different from default 'true')
c 
c --- [ solving ] ------------------------------------------------------------
c 
c time measured in process time since initialization
c 
c  seconds  reductions  redundant  irredundant
c         MB    restarts       trail       variables
c          level   conflicts       glue         remaining
c 
c *  0.03 27  0 0   0    0    0  0% 0 137317 32878 60%
c {  0.04 27  0 0   0    0    0  0% 0 137317 32878 60%
c i  0.06 27 1011 0   1   58   41 73% 3 137317 32588 59%
c i  0.06 27 994 0   1   59   41 73% 3 137317 32459 59%
c i  0.06 27 977 0   1   60   41 73% 3 137317 32330 59%
c i  0.06 27 815 0   1   72   50 72% 3 137317 32312 59%
c i  0.08 27 220 0  36  291  223 77% 4 137317 32295 59%
c i  0.08 27 178 0  36  365  295 78% 3 137317 24494 45%
c i  0.09 27 170 0  36  387  309 78% 3 137317 24447 45%
c i  0.09 27 169 0  36  390  311 78% 3 137317 17415 32%
c i  0.09 27 167 0  36  393  312 78% 3 137317 17046 31%
c i  0.09 27 166 0  36  395  313 78% 3 137317 16697 30%
c i  0.09 27 166 0  36  397  314 78% 3 137317 11126 20%
c }  0.09 27 165 0  36  399  314 78% 3 137317 10950 20%
c 0  0.09 27 165 0  36  399  314 78% 3 137317 10950 20%
c 
c --- [ result ] -------------------------------------------------------------
c 
s UNSATISFIABLE
c 
c --- [ run-time profiling ] -------------------------------------------------
c 
c process time taken by individual solving procedures
c (percentage relative to process time for solving)
c 
c         0.05   99.77% search
c         0.05   84.47% unstable
c         0.03   57.20% parse
c         0.01   15.27% lucky
c         0.00    0.00% simplify
c   =================================
c         0.05   63.21% solve
c 
c last line shows process time for solving
c (percentage relative to total process time)
c 
c --- [ statistics ] ---------------------------------------------------------
c 
c chronological:               289        72.43 %  of conflicts
c conflicts:                   399      7269.08    per second
c decisions:                  3205     58389.51    per second
c fixed:                     43855        80.02 %  of all variables
c learned:                     393        98.50 %  per conflict
c learned_lits:               3409       100.00 %  learned literals
c minimized:                     0         0.00 %  learned literals
c shrunken:                   1251        36.70 %  learned literals
c minishrunken:                 80         2.35 %  learned literals
c otfs:                          2         0.50 %  of conflict
c propagations:            1543331        28.12 M  per second
c restarts:                     36        11.08    interval
c subsumed:                     67         0.05 %  of all clauses
c strengthened:                  2         0.00 %  of all clauses
c 
c seconds are measured in process time for solving
c 
c --- [ resources ] ----------------------------------------------------------
c 
c total process time since initialization:         0.09    seconds
c total real time since initialization:            0.09    seconds
c maximum resident set size of process:           30.75    MB
c 
c --- [ shutting down ] ------------------------------------------------------
c 
c exit 20
